Generated by cif2cell 2.1.0. N H4 Al F4 :  Bulou, A et al., Materials Research Bulletin 17, 391-397 (1982).
   5.056400
  1.000000000000000   0.000000000000000   0.000000000000000
  0.000000000000000   1.000000000000000   0.000000000000000
  0.000000000000000   0.000000000000000   2.513903172217388
   F   N  Al   H
  16   4   4  16
Direct
  0.000000000000000   0.500000000000000   0.139400000000000 
  0.500000000000000   0.000000000000000   0.639400000000000 
  0.500000000000000   0.000000000000000   0.360600000000000 
  0.000000000000000   0.500000000000000   0.360600000000000 
  0.000000000000000   0.500000000000000   0.639400000000000 
  0.000000000000000   0.500000000000000   0.860600000000000 
  0.500000000000000   0.000000000000000   0.860600000000000 
  0.500000000000000   0.000000000000000   0.139400000000000 
  0.295700000000000   0.298000000000000   0.000000000000000 
  0.298000000000000   0.704300000000000   0.500000000000000 
  0.202000000000000   0.204300000000000   0.500000000000000 
  0.704300000000000   0.702000000000000   0.000000000000000 
  0.204300000000000   0.798000000000000   0.000000000000000 
  0.702000000000000   0.295700000000000   0.500000000000000 
  0.798000000000000   0.795700000000000   0.500000000000000 
  0.795700000000000   0.202000000000000   0.000000000000000 
  0.000000000000000   0.000000000000000   0.250000000000000 
  0.000000000000000   0.000000000000000   0.750000000000000 
  0.500000000000000   0.500000000000000   0.250000000000000 
  0.500000000000000   0.500000000000000   0.750000000000000 
  0.000000000000000   0.500000000000000   0.000000000000000 
  0.500000000000000   0.000000000000000   0.500000000000000 
  0.000000000000000   0.500000000000000   0.500000000000000 
  0.500000000000000   0.000000000000000   0.000000000000000 
  0.001700000000000   0.831000000000000   0.203000000000000 
  0.831000000000000   0.998300000000000   0.703000000000000 
  0.831000000000000   0.998300000000000   0.297000000000000 
  0.669000000000000   0.498300000000000   0.297000000000000 
  0.669000000000000   0.498300000000000   0.703000000000000 
  0.998300000000000   0.169000000000000   0.203000000000000 
  0.998300000000000   0.169000000000000   0.797000000000000 
  0.498300000000000   0.331000000000000   0.797000000000000 
  0.498300000000000   0.331000000000000   0.203000000000000 
  0.001700000000000   0.831000000000000   0.797000000000000 
  0.169000000000000   0.001700000000000   0.703000000000000 
  0.169000000000000   0.001700000000000   0.297000000000000 
  0.331000000000000   0.501700000000000   0.297000000000000 
  0.331000000000000   0.501700000000000   0.703000000000000 
  0.501700000000000   0.669000000000000   0.797000000000000 
  0.501700000000000   0.669000000000000   0.203000000000000 
